results/filo2/x-long/X-n157-k13.vrp_seed-0.out
16876	1395
