results/filo2/x-long/X-n157-k13.vrp_seed-0.vrp.sol
Route #1: 47 5 153 76 136 112 89 81 119 2 57 88
Route #2: 38 122 69 99 93 36 68 20 75 118 147 15
Route #3: 34 138 25 155 22 30 74 79 84 33 48 72
Route #4: 16 103 65 87 97 62 142 128 26 120 14 49
Route #5: 71 149 8 150 156 24 43 141 64 63 13 148
Route #6: 129 91 100 51 90 83 45 77 11 82 113 151
Route #7: 17 67 4 35 6 115 55 95 105 152 56 61
Route #8: 18 107 52 134 10 39 58 29 114 109 60 12
Route #9: 59 96 102 132 111 86 94 66 28 7 137 92
Route #10: 37 116 19 46 145 127 104 130 124 44 27 101
Route #11: 41 110 54 121 21 135 73 106 3 42 32 143
Route #12: 70 139 125 78 146 80 40 108 9 117 1 126
Route #13: 131 133 50 154 98 123 53 144 85 140 31 23
Cost 16876.000000